(set-info :smt-lib-version 2.6)
(set-logic QF_LIA)
(set-info :category "industrial")
(set-info :status sat)
(declare-fun x0 () Int)
(declare-fun x1 () Int)
(declare-fun x10 () Int)
(declare-fun x11 () Int)
(declare-fun x12 () Int)
(declare-fun x13 () Int)
(declare-fun x14 () Int)
(declare-fun x15 () Int)
(declare-fun x16 () Int)
(declare-fun x17 () Int)
(declare-fun x18 () Int)
(declare-fun x19 () Int)
(declare-fun x2 () Int)
(declare-fun x20 () Int)
(declare-fun x21 () Int)
(declare-fun x22 () Int)
(declare-fun x23 () Int)
(declare-fun x24 () Int)
(declare-fun x25 () Int)
(declare-fun x26 () Int)
(declare-fun x27 () Int)
(declare-fun x28 () Int)
(declare-fun x29 () Int)
(declare-fun x3 () Int)
(declare-fun x30 () Int)
(declare-fun x31 () Int)
(declare-fun x32 () Int)
(declare-fun x33 () Int)
(declare-fun x34 () Int)
(declare-fun x4 () Int)
(declare-fun x5 () Int)
(declare-fun x6 () Int)
(declare-fun x7 () Int)
(declare-fun x8 () Int)
(declare-fun x9 () Int)
(assert (let ((?v_0 (* 0 x10)) (?v_1 (* 0 x12)) (?v_7 (* 0 x13)) (?v_2 (* 0 x14)) (?v_14 (* 0 x15)) (?v_31 (* 1 x2)) (?v_92 (* 2 x23)) (?v_12 (* 0 x20)) (?v_4 (* 0 x25)) (?v_47 (* 0 x28)) (?v_42 (* 1 x3)) (?v_85 (* 1 x31)) (?v_10 (* 0 x34)) (?v_22 (* 0 x5)) (?v_5 (* 0 x8)) (?v_106 (* 2 x30)) (?v_15 (* 0 x18)) (?v_16 (* 0 x2)) (?v_17 (* 1 x13)) (?v_44 (* 1 x15)) (?v_19 (* 1 x27)) (?v_20 (* 1 x29)) (?v_8 (* 0 x31)) (?v_111 (* 1 x28)) (?v_9 (* 1 x32)) (?v_11 (* 1 x5)) (?v_105 (* 1 x6)) (?v_24 (* 0 x0)) (?v_41 (* 1 x18)) (?v_50 (* 0 x21)) (?v_38 (* 0 x27)) (?v_21 (* 0 x3)) (?v_23 (* 0 x6)) (?v_34 (* 1 x30)) (?v_55 (* 1 x9)) (?v_94 (* 1 x11)) (?v_52 (* 1 x17)) (?v_101 (* 1 x19)) (?v_67 (* 0 x30)) (?v_39 (* 1 x1)) (?v_37 (* 0 x16)) (?v_46 (* 1 x21)) (?v_79 (* 0 x23)) (?v_53 (* 1 x25)) (?v_54 (* 1 x26)) (?v_35 (* 1 x34))) (let ((?v_48 (+ ?v_35 ?v_11)) (?v_64 (* 1 x0)) (?v_40 (* 1 x12)) (?v_74 (* 0 x32)) (?v_82 (* 1 x22)) (?v_90 (* 1 x7)) (?v_83 (* 1 x8)) (?v_43 (* 0 x11)) (?v_68 (* 0 x4)) (?v_62 (* 0 x33)) (?v_93 (* 1 x24)) (?v_65 (* 0 x19)) (?v_77 (* 1 x16)) (?v_97 (* 0 x24)) (?v_58 (* 2 x29)) (?v_75 (* 0 x7)) (?v_81 (* 0 x1)) (?v_95 (* 1 x14)) (?v_76 (* 0 x17)) (?v_70 (* 0 x22)) (?v_72 (* 0 x29)) (?v_91 (* 1 x33)) (?v_89 (* 1 x4)) (?v_84 (* 0 x9))) (let ((?v_80 (+ ?v_23 (+ ?v_75 ?v_84))) (?v_103 (* 0 x26)) (?v_86 (* 1 x10)) (?v_113 (* 2 x5)) (?v_115 (* 1 x20))) (let ((?v_123 (+ ?v_115 ?v_83)) (?v_122 (* 2 x12)) (?v_114 (+ ?v_105 ?v_55)) (?v_118 (* 2 x3)) (?v_116 (* 2 x21)) (?v_117 (* 1 x23)) (?v_128 (+ ?v_75 ?v_55)) (?v_121 (+ ?v_115 ?v_55)) (?v_120 (* 2 x6)) (?v_127 (* 2 x4)) (?v_36 (* (- 1) x0)) (?v_25 (* (- 1) x11)) (?v_3 (* (- 2) x24)) (?v_26 (* (- 1) x27)) (?v_6 (* (- 1) x4)) (?v_32 (* (- 1) x6)) (?v_30 (* (- 1) x16)) (?v_45 (* (- 1) x20)) (?v_99 (* (- 1) x34)) (?v_18 (* (- 1) x9)) (?v_13 (* (- 1) x12)) (?v_27 (* (- 1) x19)) (?v_28 (* (- 1) x1)) (?v_78 (* (- 1) x22)) (?v_33 (* (- 1) x26)) (?v_49 (* (- 1) x28)) (?v_88 (* (- 1) x18)) (?v_110 (* (- 2) x28)) (?v_73 (* (- 1) x8)) (?v_29 (* (- 1) x13)) (?v_59 (* (- 1) x30)) (?v_60 (* (- 1) x31)) (?v_56 (* (- 1) x17)) (?v_57 (* (- 1) x25)) (?v_66 (* (- 1) x33)) (?v_87 (* (- 1) x15)) (?v_102 (* (- 1) x29)) (?v_51 (* (- 1) x23)) (?v_108 (* (- 1) x14)) (?v_63 (* (- 1) x2)) (?v_61 (* (- 1) x32)) (?v_69 (* (- 1) x10)) (?v_96 (* (- 1) x7)) (?v_112 (* (- 2) x8)) (?v_71 (* (- 1) x24)) (?v_98 (* (- 2) x0)) (?v_107 (* (- 2) x1)) (?v_125 (* (- 2) x33)) (?v_100 (* (- 1) x21))) (let ((?v_104 (+ ?v_11 (+ ?v_96 ?v_12))) (?v_109 (* (- 1) x5)) (?v_119 (* (- 1) x3)) (?v_126 (* (- 2) x29)) (?v_124 (* (- 2) x14))) (and (<= (+ ?v_36 (+ ?v_0 (+ ?v_25 (+ ?v_1 (+ ?v_7 (+ ?v_2 (+ ?v_14 (+ ?v_31 (+ ?v_92 (+ ?v_3 (+ ?v_26 (+ ?v_6 (+ ?v_32 (+ ?v_12 (+ ?v_4 (+ ?v_47 (+ ?v_42 (+ ?v_85 (+ ?v_10 (+ ?v_22 (+ ?v_5 ?v_106))))))))))))))))))))) 0) (<= (+ ?v_0 (+ ?v_1 (+ ?v_30 (+ ?v_2 (+ ?v_15 (+ ?v_16 (+ ?v_17 (+ ?v_44 (+ ?v_3 (+ ?v_45 (+ ?v_4 (+ ?v_19 (+ ?v_20 (+ ?v_8 (+ ?v_111 (+ ?v_9 (+ ?v_99 (+ ?v_18 (+ ?v_11 (+ ?v_5 ?v_105)))))))))))))))))))) 0) (<= (+ ?v_13 (+ ?v_24 (+ ?v_0 (+ ?v_27 (+ ?v_6 (+ ?v_7 (+ ?v_41 (+ ?v_50 (+ ?v_38 (+ ?v_21 (+ ?v_8 (+ ?v_9 (+ ?v_10 (+ ?v_11 (+ ?v_23 (+ ?v_34 (+ (* (- 2) x7) (+ ?v_12 ?v_55)))))))))))))))))) 0) (<= (+ ?v_28 (+ ?v_0 (+ ?v_13 (+ ?v_94 (+ ?v_14 (+ ?v_15 (+ ?v_16 (+ ?v_78 (+ ?v_17 (+ ?v_52 (+ ?v_101 (+ (* (- 3) x24) (+ ?v_33 (+ ?v_49 (+ ?v_18 (+ ?v_12 (+ ?v_19 (+ ?v_20 (+ ?v_21 (+ ?v_67 (+ ?v_22 ?v_23))))))))))))))))))))) 1) (<= (+ ?v_24 (+ ?v_25 (+ ?v_88 (+ ?v_26 (+ ?v_1 (+ ?v_16 (+ ?v_110 (+ ?v_73 (+ ?v_18 (+ ?v_39 (+ ?v_29 (+ ?v_14 (+ ?v_37 (+ ?v_27 (+ ?v_46 (+ ?v_79 (+ ?v_53 (+ ?v_23 (+ ?v_54 (+ ?v_20 (+ ?v_59 ?v_48))))))))))))))))))))) 1) (<= (+ ?v_64 (+ ?v_28 (+ ?v_40 (+ ?v_29 (+ ?v_30 (+ ?v_15 (+ ?v_31 (+ ?v_60 (+ ?v_6 (+ ?v_18 (+ ?v_21 (+ ?v_74 (+ ?v_32 (+ ?v_82 (+ ?v_33 (+ ?v_34 (+ ?v_35 (+ ?v_90 ?v_83)))))))))))))))))) 0) (<= (+ ?v_36 (+ ?v_0 (+ ?v_56 (+ ?v_57 (+ ?v_66 (+ ?v_18 (+ ?v_43 (+ ?v_37 (+ ?v_16 (+ ?v_38 (+ ?v_68 (+ ?v_22 (+ ?v_5 (+ ?v_39 (+ ?v_40 (+ ?v_87 (+ ?v_41 (+ ?v_27 (+ ?v_102 (+ ?v_7 ?v_42)))))))))))))))))))) 1) (<= (+ ?v_24 (+ ?v_0 (+ ?v_43 (+ ?v_1 (+ ?v_2 (+ ?v_37 (+ ?v_44 (+ ?v_31 (+ ?v_45 (+ ?v_46 (+ ?v_51 (+ ?v_47 (+ ?v_62 (+ ?v_5 (+ ?v_93 (+ ?v_20 ?v_48)))))))))))))))) 1) (<= (+ ?v_1 (+ (* (- 2) x31) (+ ?v_39 (+ ?v_108 (+ ?v_15 (+ ?v_63 (+ ?v_26 (+ ?v_49 (+ ?v_61 (+ ?v_14 (+ ?v_65 (+ ?v_50 (+ ?v_51 (+ ?v_5 (+ ?v_17 (+ ?v_77 (+ ?v_52 (+ ?v_45 (+ ?v_97 (+ ?v_53 (+ ?v_54 (+ ?v_11 (+ ?v_55 (+ ?v_58 ?v_75)))))))))))))))))))))))) 1) (<= (+ ?v_69 (+ ?v_56 (+ ?v_81 (+ ?v_1 (+ ?v_95 (+ (* 2 x16) (+ (* 3 x19) (+ ?v_45 (+ ?v_46 (+ ?v_51 (+ ?v_57 (+ ?v_38 (+ ?v_58 (+ ?v_21 (+ ?v_59 (+ ?v_60 (+ ?v_61 (+ ?v_62 (+ ?v_18 (+ ?v_10 (+ ?v_23 ?v_96))))))))))))))))))))) 1) (<= (+ ?v_63 (+ ?v_112 (+ ?v_1 (+ ?v_64 (+ ?v_51 (+ ?v_7 (+ ?v_2 (+ ?v_37 (+ ?v_76 (+ ?v_15 (+ ?v_65 (+ ?v_46 (+ ?v_70 (+ ?v_71 (+ ?v_26 (+ ?v_66 (+ ?v_18 (+ ?v_12 (+ ?v_4 (+ ?v_72 (+ ?v_21 (+ ?v_67 (+ ?v_68 ?v_23))))))))))))))))))))))) 1) (<= (+ ?v_98 (+ ?v_107 (+ ?v_69 (+ ?v_25 (+ ?v_1 (+ ?v_14 (+ ?v_16 (+ ?v_46 (+ ?v_51 (+ ?v_70 (+ ?v_71 (+ ?v_26 (+ ?v_4 (+ ?v_49 (+ ?v_72 (+ ?v_60 (+ ?v_73 (+ ?v_74 (+ ?v_91 (+ ?v_10 (+ ?v_89 ?v_80))))))))))))))))))))) 0) (<= (+ ?v_69 (+ ?v_63 (+ ?v_40 (+ (* 2 x0) (+ ?v_14 (+ ?v_76 (+ ?v_41 (+ ?v_50 (+ ?v_77 (+ ?v_78 (+ ?v_79 (+ ?v_71 (+ ?v_4 (+ ?v_49 (+ ?v_103 (+ ?v_38 (+ ?v_58 (+ ?v_67 (+ ?v_8 (+ ?v_74 (+ ?v_68 (+ ?v_22 ?v_80)))))))))))))))))))))) 1) (<= (+ ?v_25 (+ ?v_63 (+ ?v_81 (+ ?v_86 (+ ?v_1 (+ ?v_7 (+ ?v_2 (+ ?v_15 (+ ?v_65 (+ ?v_50 (+ ?v_79 (+ ?v_82 (+ ?v_71 (+ ?v_26 (+ ?v_18 (+ ?v_53 (+ ?v_72 (+ ?v_21 (+ ?v_67 (+ ?v_74 (+ ?v_62 (+ ?v_68 (+ ?v_113 (+ ?v_23 ?v_123)))))))))))))))))))))))) 1) (<= (+ ?v_69 (+ ?v_125 (+ ?v_24 (+ ?v_37 (+ ?v_76 (+ (* (- 2) x3) (+ ?v_39 (+ ?v_41 (+ ?v_31 (+ ?v_70 (+ ?v_71 (+ ?v_4 (+ ?v_38 (+ ?v_47 (+ ?v_68 (+ ?v_22 (+ ?v_23 (+ ?v_5 (+ ?v_84 (+ ?v_54 (+ ?v_20 (+ ?v_67 ?v_85)))))))))))))))))))))) (- 1)) (<= (+ (* (- 2) x32) (+ ?v_24 (+ ?v_86 (+ ?v_25 (+ ?v_81 (+ ?v_87 (+ ?v_56 (+ ?v_88 (+ ?v_37 (+ ?v_65 (+ ?v_50 (+ ?v_17 (+ ?v_82 (+ ?v_71 (+ ?v_47 (+ (* 2 x26) (+ ?v_59 (+ ?v_8 (+ ?v_89 (+ ?v_23 (+ ?v_5 ?v_90))))))))))))))))))))) (- 1)) (<= (+ ?v_86 (+ ?v_25 (+ (* 2 x18) (+ ?v_63 (+ ?v_57 (+ ?v_26 (+ ?v_81 (+ ?v_47 (+ ?v_21 (+ ?v_74 (+ ?v_68 (+ ?v_22 (+ ?v_44 (+ ?v_52 (+ ?v_70 (+ ?v_91 (+ ?v_55 (+ ?v_92 (+ ?v_33 (+ ?v_59 (+ ?v_93 ?v_35))))))))))))))))))))) 0) (<= (+ (* (- 2) x2) (+ (* (- 2) x9) (+ ?v_36 (+ ?v_81 (+ ?v_0 (+ ?v_94 (+ ?v_40 (+ ?v_87 (+ ?v_27 (+ ?v_95 (+ ?v_96 (+ ?v_12 (+ ?v_46 (+ ?v_97 (+ ?v_4 (+ ?v_38 (+ ?v_47 (+ ?v_72 (+ ?v_8 (+ ?v_74 (+ ?v_22 (+ ?v_42 (+ (* 2 x33) ?v_89))))))))))))))))))))))) 0) (<= (+ ?v_98 (+ ?v_28 (+ ?v_0 (+ ?v_100 (+ ?v_1 (+ ?v_94 (+ ?v_60 (+ ?v_99 (+ ?v_18 (+ ?v_2 (+ ?v_14 (+ ?v_52 (+ ?v_47 (+ ?v_21 (+ ?v_67 (+ ?v_23 (+ ?v_17 (+ ?v_91 ?v_104)))))))))))))))))) 0) (<= (+ ?v_36 (+ ?v_28 (+ ?v_0 (+ ?v_13 (+ ?v_100 (+ ?v_94 (+ ?v_29 (+ ?v_14 (+ ?v_77 (+ ?v_101 (+ ?v_70 (+ ?v_79 (+ ?v_71 (+ ?v_19 (+ ?v_49 (+ ?v_102 (+ ?v_66 (+ ?v_6 (+ ?v_18 (+ ?v_103 (+ ?v_21 (+ ?v_59 ?v_104)))))))))))))))))))))) (- 1)) (<= (+ ?v_69 (+ ?v_13 (+ ?v_63 (+ ?v_24 (+ ?v_94 (+ ?v_33 (+ ?v_7 (+ ?v_2 (+ ?v_76 (+ ?v_4 (+ ?v_19 (+ ?v_47 (+ ?v_74 (+ ?v_20 (+ ?v_85 (+ ?v_91 (+ (* 2 x19) (+ ?v_105 (+ ?v_106 (+ ?v_96 (+ ?v_12 ?v_83))))))))))))))))))))) 0) (<= (+ (* (- 3) x8) (+ ?v_24 (+ ?v_107 (+ ?v_86 (+ ?v_29 (+ ?v_26 (+ ?v_37 (+ ?v_76 (+ ?v_41 (+ ?v_27 (+ ?v_96 (+ ?v_12 (+ ?v_82 (+ ?v_92 (+ ?v_97 (+ ?v_47 (+ ?v_21 (+ ?v_67 (+ ?v_74 (+ ?v_91 ?v_84)))))))))))))))))))) 1) (<= (+ ?v_28 (+ ?v_86 (+ ?v_122 (+ ?v_108 (+ ?v_87 (+ ?v_100 (+ ?v_109 (+ ?v_18 (+ ?v_7 (+ ?v_77 (+ ?v_52 (+ ?v_70 (+ ?v_79 (+ ?v_97 (+ ?v_72 (+ ?v_23 (+ ?v_34 (+ ?v_9 (+ ?v_91 (+ ?v_35 ?v_89)))))))))))))))))))) 0) (<= (+ ?v_24 (+ ?v_28 (+ ?v_86 (+ ?v_25 (+ ?v_87 (+ ?v_63 (+ ?v_57 (+ ?v_33 (+ ?v_26 (+ ?v_6 (+ ?v_109 (+ ?v_7 (+ ?v_50 (+ ?v_77 (+ ?v_52 (+ ?v_70 (+ ?v_47 (+ ?v_8 (+ ?v_10 (+ ?v_34 (+ ?v_9 (+ ?v_75 (+ ?v_83 ?v_55))))))))))))))))))))))) (- 1)) (<= (+ ?v_43 (+ ?v_110 (+ ?v_39 (+ (* 2 x10) (+ ?v_78 (+ ?v_33 (+ ?v_59 (+ ?v_7 (+ ?v_2 (+ ?v_14 (+ ?v_15 (+ ?v_52 (+ ?v_12 (+ ?v_97 (+ ?v_4 (+ ?v_38 (+ ?v_62 (+ ?v_22 (+ ?v_5 (+ ?v_42 ?v_114)))))))))))))))))))) (- 1)) (<= (+ ?v_36 (+ ?v_28 (+ ?v_43 (+ ?v_40 (+ ?v_87 (+ ?v_30 (+ ?v_56 (+ ?v_63 (+ ?v_102 (+ ?v_60 (+ ?v_61 (+ ?v_73 (+ ?v_65 (+ ?v_12 (+ ?v_50 (+ ?v_79 (+ ?v_47 (+ ?v_21 (+ ?v_68 (+ ?v_22 (* 2 x34))))))))))))))))))))) 1) (<= (+ ?v_100 (+ ?v_24 (+ ?v_86 (+ ?v_43 (+ ?v_1 (+ ?v_76 (+ ?v_15 (+ ?v_16 (+ ?v_4 (+ ?v_119 (+ ?v_60 (+ ?v_14 (+ ?v_65 (+ ?v_47 (+ ?v_72 (+ ?v_59 (+ ?v_22 (+ ?v_84 (+ ?v_17 (+ ?v_12 (+ ?v_97 (+ ?v_91 (+ (* 2 x27) (+ ?v_10 ?v_75)))))))))))))))))))))))) (- 1)) (<= (+ ?v_63 (+ ?v_1 (+ ?v_50 (+ ?v_126 (+ ?v_61 (+ ?v_109 (+ ?v_64 (+ ?v_94 (+ ?v_108 (+ ?v_7 (+ ?v_77 (+ ?v_12 (+ ?v_70 (+ ?v_97 (+ ?v_4 (+ ?v_8 (+ ?v_5 (+ ?v_84 (+ ?v_111 (+ ?v_91 (+ ?v_118 (+ ?v_105 (* 2 x7))))))))))))))))))))))) 1) (<= (+ (* (- 2) x25) (+ ?v_63 (+ ?v_50 (+ ?v_112 (+ ?v_39 (+ ?v_94 (+ ?v_40 (+ ?v_78 (+ ?v_26 (+ ?v_60 (+ ?v_6 (+ ?v_18 (+ ?v_7 (+ ?v_14 (+ ?v_65 (+ ?v_12 (+ ?v_97 (+ ?v_47 (+ ?v_72 (+ ?v_21 (+ ?v_10 (+ ?v_23 (+ ?v_34 (+ ?v_11 ?v_90)))))))))))))))))))))))) 1) (<= (+ ?v_36 (+ ?v_30 (+ ?v_88 (+ ?v_81 (+ ?v_43 (+ ?v_124 (+ ?v_52 (+ ?v_65 (+ ?v_16 (+ (* 2 x13) (+ ?v_12 (+ ?v_116 (+ ?v_70 (+ ?v_97 (+ ?v_47 (+ ?v_62 (+ ?v_68 (+ ?v_5 (+ ?v_54 (+ ?v_20 ?v_113)))))))))))))))))))) 0) (<= (+ ?v_36 (+ ?v_28 (+ ?v_108 (+ ?v_26 (+ ?v_14 (+ ?v_37 (+ ?v_76 (+ ?v_15 (+ ?v_65 (+ ?v_16 (+ ?v_12 (+ ?v_4 (+ ?v_46 (+ ?v_117 (+ ?v_103 (+ ?v_8 (+ ?v_74 (+ ?v_62 (+ ?v_5 (+ ?v_93 (+ ?v_111 (+ ?v_11 ?v_114)))))))))))))))))))))) 0) (<= (+ ?v_13 (+ ?v_64 (+ ?v_81 (+ ?v_86 (+ ?v_87 (+ (* (- 2) x26) (+ ?v_66 (+ ?v_7 (+ ?v_2 (+ ?v_37 (+ ?v_76 (+ ?v_41 (+ ?v_16 (+ ?v_70 (+ ?v_97 (+ ?v_38 (+ ?v_53 (+ ?v_72 (+ ?v_111 (+ ?v_10 ?v_128)))))))))))))))))))) 0) (<= (+ ?v_69 (+ ?v_56 (+ ?v_57 (+ ?v_61 (+ ?v_73 (+ ?v_24 (+ ?v_43 (+ ?v_14 (+ ?v_41 (+ ?v_50 (+ ?v_101 (+ ?v_70 (+ ?v_33 (+ ?v_59 (+ ?v_60 (+ ?v_97 (+ ?v_38 (+ ?v_72 (+ ?v_42 (+ ?v_10 (+ ?v_23 ?v_121))))))))))))))))))))) (- 1)) (<= (+ ?v_69 (+ ?v_13 (+ ?v_24 (+ ?v_81 (+ ?v_94 (+ ?v_29 (+ ?v_37 (+ ?v_76 (+ ?v_41 (+ ?v_31 (+ ?v_116 (+ ?v_70 (+ ?v_97 (+ ?v_4 (+ ?v_47 (+ ?v_72 (+ ?v_8 (+ ?v_68 (+ ?v_115 (+ ?v_42 ?v_11)))))))))))))))))))) 0) (<= (+ ?v_94 (+ ?v_87 (+ ?v_56 (+ ?v_100 (+ ?v_66 (+ ?v_18 (+ ?v_7 (+ ?v_77 (+ ?v_101 (+ ?v_79 (+ ?v_97 (+ ?v_20 (+ ?v_21 (+ ?v_8 (+ ?v_74 (+ ?v_10 (+ ?v_68 (+ ?v_22 (+ ?v_106 ?v_90))))))))))))))))))) 1) (<= (+ ?v_56 (+ ?v_100 (+ ?v_64 (+ ?v_81 (+ ?v_40 (+ ?v_27 (+ ?v_7 (+ ?v_14 (+ ?v_15 (+ ?v_16 (+ ?v_77 (+ ?v_117 (+ ?v_97 (+ ?v_53 (+ ?v_19 (+ ?v_47 (+ ?v_8 (+ ?v_84 (+ ?v_89 (+ ?v_118 (+ ?v_67 (+ ?v_120 ?v_96)))))))))))))))))))))) 1) (<= (+ ?v_13 (+ ?v_24 (+ ?v_0 (+ ?v_94 (+ ?v_51 (+ ?v_49 (+ ?v_18 (+ ?v_2 (+ ?v_15 (+ ?v_65 (+ ?v_16 (+ ?v_50 (+ ?v_4 (+ ?v_103 (+ ?v_19 (+ ?v_72 (+ ?v_21 (+ ?v_67 (+ ?v_85 (+ ?v_91 (+ ?v_89 (+ ?v_105 ?v_96)))))))))))))))))))))) (- 1)) (<= (+ ?v_88 (+ ?v_26 (+ ?v_61 (+ ?v_18 (+ ?v_1 (+ ?v_37 (+ ?v_76 (+ ?v_50 (+ ?v_4 (+ ?v_22 (+ ?v_5 (+ ?v_64 (+ ?v_39 (+ ?v_86 (+ ?v_94 (+ ?v_59 (+ ?v_60 (+ ?v_17 (+ ?v_97 (+ ?v_54 (+ ?v_91 (+ ?v_89 (+ ?v_75 ?v_115))))))))))))))))))))))) 0) (<= (+ ?v_86 (+ ?v_13 (+ ?v_88 (+ ?v_63 (+ ?v_43 (+ ?v_38 (+ ?v_119 (+ ?v_60 (+ ?v_61 (+ ?v_73 (+ ?v_44 (+ ?v_65 (+ ?v_46 (+ ?v_111 (+ (* 2 x22) (+ ?v_67 (+ ?v_68 (+ ?v_120 (+ (* 3 x13) (+ ?v_75 ?v_121)))))))))))))))))))) (- 1)) (<= (+ ?v_28 (+ ?v_88 (+ ?v_43 (+ ?v_122 (+ ?v_27 (+ ?v_2 (+ ?v_14 (+ ?v_16 (+ ?v_17 (+ ?v_82 (+ ?v_71 (+ ?v_42 (+ ?v_9 (+ ?v_99 (+ ?v_67 (+ ?v_68 (+ ?v_75 (+ ?v_84 ?v_123)))))))))))))))))) 0) (<= (+ ?v_61 (+ ?v_24 (+ ?v_81 (+ ?v_86 (+ ?v_43 (+ ?v_1 (+ ?v_14 (+ (* 2 x17) (+ ?v_65 (+ ?v_50 (+ ?v_70 (+ ?v_4 (+ ?v_72 (+ ?v_21 (+ ?v_8 (+ ?v_62 (+ ?v_68 (+ ?v_23 (+ ?v_5 (+ ?v_84 (+ ?v_54 (+ (* 2 x14) ?v_75)))))))))))))))))))))) (- 1)) (<= (+ ?v_24 (+ ?v_86 (+ ?v_94 (+ ?v_40 (+ ?v_124 (+ ?v_30 (+ ?v_57 (+ ?v_119 (+ ?v_73 (+ ?v_14 (+ ?v_41 (+ ?v_27 (+ ?v_38 (+ ?v_8 (+ ?v_74 (+ ?v_10 (+ ?v_22 (+ ?v_82 (+ ?v_103 (+ ?v_91 (+ ?v_55 (+ ?v_106 ?v_75)))))))))))))))))))))) (- 1)) (<= (+ ?v_125 (+ ?v_1 (+ ?v_76 (+ ?v_64 (+ ?v_39 (+ ?v_94 (+ ?v_14 (+ ?v_27 (+ ?v_60 (+ ?v_79 (+ ?v_17 (+ ?v_31 (+ ?v_82 (+ ?v_97 (+ ?v_4 (+ ?v_103 (+ ?v_38 (+ ?v_72 (+ ?v_74 (+ ?v_10 (+ ?v_68 (+ ?v_34 ?v_105)))))))))))))))))))))) 0) (<= (+ ?v_126 (+ ?v_81 (+ ?v_86 (+ ?v_87 (+ ?v_37 (+ ?v_65 (+ ?v_31 (+ ?v_51 (+ ?v_4 (+ ?v_38 (+ ?v_47 (+ ?v_119 (+ ?v_59 (+ ?v_61 (+ ?v_73 (+ ?v_8 (+ ?v_17 (+ ?v_95 (+ ?v_93 ?v_54))))))))))))))))))) (- 1)) (<= (+ ?v_24 (+ ?v_28 (+ ?v_40 (+ (* (- 2) x15) (+ ?v_65 (+ ?v_16 (+ ?v_78 (+ ?v_4 (+ ?v_47 (+ ?v_21 (+ ?v_68 (+ ?v_84 (+ ?v_17 (+ ?v_77 (+ ?v_52 (+ ?v_117 (+ ?v_91 (+ ?v_58 (+ ?v_113 ?v_96))))))))))))))))))) 0) (<= (+ ?v_36 (+ ?v_63 (+ ?v_81 (+ ?v_0 (+ ?v_1 (+ ?v_37 (+ ?v_76 (+ ?v_116 (+ ?v_78 (+ ?v_79 (+ ?v_95 (+ ?v_71 (+ ?v_53 (+ ?v_33 (+ ?v_38 (+ ?v_49 (+ ?v_102 (+ ?v_73 (+ ?v_8 (+ ?v_74 (+ ?v_62 (+ ?v_10 ?v_127)))))))))))))))))))))) 1) (<= (+ ?v_24 (+ ?v_0 (+ ?v_25 (+ ?v_29 (+ ?v_108 (+ ?v_41 (+ ?v_63 (+ ?v_100 (+ ?v_57 (+ ?v_99 (+ ?v_65 (+ ?v_70 (+ ?v_71 (+ ?v_38 (+ ?v_47 (+ ?v_72 (+ ?v_8 (+ ?v_74 (+ ?v_68 (+ ?v_22 (+ ?v_5 (+ ?v_115 (+ ?v_42 ?v_90))))))))))))))))))))))) 0) (<= (+ ?v_0 (+ ?v_25 (+ ?v_87 (+ ?v_56 (+ ?v_66 (+ ?v_73 (+ ?v_7 (+ ?v_2 (+ ?v_65 (+ ?v_16 (+ ?v_46 (+ ?v_79 (+ ?v_4 (+ ?v_38 (+ ?v_21 (+ ?v_68 (+ ?v_22 (+ ?v_84 (+ ?v_93 (+ ?v_54 (+ ?v_111 (+ ?v_105 ?v_75)))))))))))))))))))))) 0) (<= (+ ?v_13 (+ ?v_56 (+ ?v_81 (+ ?v_14 (+ ?v_65 (+ ?v_4 (+ ?v_117 (+ ?v_33 (+ ?v_66 (+ ?v_74 (+ ?v_10 (+ ?v_22 (+ ?v_23 (+ ?v_93 (+ ?v_20 (+ (* 2 x28) (+ ?v_42 (+ ?v_127 ?v_128)))))))))))))))))) 0) (<= (+ ?v_0 (+ ?v_13 (+ ?v_30 (+ ?v_88 (+ ?v_26 (+ ?v_43 (+ ?v_14 (+ ?v_65 (+ ?v_79 (+ ?v_72 (+ ?v_59 (+ ?v_8 (+ ?v_22 (+ ?v_5 (+ ?v_84 (+ ?v_17 (+ ?v_93 (+ ?v_91 (+ ?v_35 ?v_96))))))))))))))))))) 1))))))))
(check-sat)
(exit)
